0
Node Left Objective IInf Best_Integer Best_Bound ItCnt Gap
0 0 193.4138 23 193.4138 16
0+ 0 nan nan 1137.6779 193.4138 nan 83.00%
0 0 219.7919 23 1137.6779 Cuts:23 74 80.68%
0+ 0 nan nan 947.7774 219.7919 nan 76.81%
0 0 227.6958 24 947.7774 Fract:9 94 75.98%
0 0 229.2911 23 947.7774 Fract:4 124 75.81%
0+ 0 nan nan 770.0392 229.2911 nan 70.22%
0 0 234.0764 25 770.0392 Fract:4 148 69.60%
0 0 234.1763 23 770.0392 Fract:1 154 69.59%
0+ 0 nan nan 623.5915 234.1763 nan 62.45%
0 2 234.1763 23 623.5915 234.4034 154 62.41%
CPXPARAM_MIP_Cuts_Gomory-FlowCovers:Gomory 0
CPXPARAM_MIP_Cuts_Gomory-FlowCovers:FlowCovers 9
1
Node Left Objective IInf Best_Integer Best_Bound ItCnt Gap
0 0 383.6264 9 383.6264 14
0+ 0 nan nan 943.6264 383.6264 nan 59.35%
0+ 0 nan nan 557.9158 383.6264 nan 31.24%
0 0 419.8491 19 557.9158 Fract:9 66 24.75%
0 0 443.5946 15 557.9158 Fract:9 93 20.49%
0 0 451.3552 15 557.9158 Fract:1 115 19.10%
0 2 451.3552 15 557.9158 451.9141 115 19.00%
CPXPARAM_MIP_Cuts_Gomory-FlowCovers:Gomory 0
CPXPARAM_MIP_Cuts_Gomory-FlowCovers:FlowCovers 11
2
Node Left Objective IInf Best_Integer Best_Bound ItCnt Gap
0 0 0.0000 28 0.0000 17
0+ 0 nan nan 2400.0000 0.0000 nan 100.00%
0+ 0 nan nan 400.6211 0.0000 nan 100.00%
0+ 0 nan nan 381.8146 0.0000 nan 100.00%
0+ 0 nan nan 262.1009 0.0000 nan 100.00%
0 2 0.0000 28 262.1009 0.0000 17 100.00%
CPXPARAM_MIP_Cuts_Gomory-FlowCovers:Gomory 0
CPXPARAM_MIP_Cuts_Gomory-FlowCovers:FlowCovers 0
3
Node Left Objective IInf Best_Integer Best_Bound ItCnt Gap
0 0 94.5810 18 94.5810 16
0+ 0 nan nan 1134.5810 94.5810 nan 91.66%
0+ 0 nan nan 355.1007 94.5810 nan 73.37%
0 0 118.9658 19 355.1007 Fract:4 44 66.50%
0 0 129.7227 20 355.1007 Fract:4 62 63.47%
0 0 161.9017 20 355.1007 Fract:7 108 54.41%
0 0 183.0319 18 355.1007 Fract:7 148 48.46%
0 0 185.6098 21 355.1007 Fract:3 165 47.73%
0 0 186.8807 21 355.1007 Fract:3 177 47.37%
0 0 187.7018 21 355.1007 Fract:2 187 47.14%
0 2 187.7018 21 355.1007 192.2552 187 45.86%
CPXPARAM_MIP_Cuts_Gomory-FlowCovers:Gomory 0
CPXPARAM_MIP_Cuts_Gomory-FlowCovers:FlowCovers 11
4
Node Left Objective IInf Best_Integer Best_Bound ItCnt Gap
0 0 743.6527 14 743.6527 13
0 0 773.5658 19 Fract:14 53
0 0 791.7402 19 Fract:17 100
0 0 791.7839 19 Flowcuts:1 102
0+ 0 nan nan 1043.3046 791.7839 nan 24.11%
0 2 791.7839 19 1043.3046 794.6165 102 23.84%
CPXPARAM_MIP_Cuts_Gomory-FlowCovers:Gomory 1
CPXPARAM_MIP_Cuts_Gomory-FlowCovers:FlowCovers 14
5
Node Left Objective IInf Best_Integer Best_Bound ItCnt Gap
0 0 824.6004 7 824.6004 14
0+ 0 nan nan 1274.6004 824.6004 nan 35.31%
0+ 0 nan nan 1016.8639 824.6004 nan 18.91%
0 0 824.6004 10 1016.8639 Fract:7 44 18.91%
0 0 826.1759 19 1016.8639 Fract:10 76 18.75%
0+ 0 nan nan 973.9895 826.1759 nan 15.18%
0 0 831.3597 19 973.9895 Fract:6 93 14.64%
0 0 831.7243 19 973.9895 Fract:1 95 14.61%
0+ 0 nan nan 883.5346 831.7243 nan 5.86%
0 2 845.2151 5 883.5346 849.5626 95 3.85%
CPXPARAM_MIP_Cuts_Gomory-FlowCovers:Gomory 0
CPXPARAM_MIP_Cuts_Gomory-FlowCovers:FlowCovers 17
6
Node Left Objective IInf Best_Integer Best_Bound ItCnt Gap
0 0 201.0936 27 201.0936 15
0+ 0 nan nan 981.0553 201.0936 nan 79.50%
0 0 244.2334 27 981.0553 Cuts:8 46 75.11%
0 0 247.5122 26 981.0553 Cuts:3 61 74.77%
0 0 247.5122 26 981.0553 Flowcuts:1 63 74.77%
0 0 247.5122 26 981.0553 Flowcuts:1 65 74.77%
0+ 0 nan nan 925.3411 247.5122 nan 73.25%
0+ 0 nan nan 848.1791 247.5122 nan 70.82%
0 2 247.5122 26 848.1791 250.6859 65 70.44%
CPXPARAM_MIP_Cuts_Gomory-FlowCovers:Gomory 4
CPXPARAM_MIP_Cuts_Gomory-FlowCovers:FlowCovers 3
7
Node Left Objective IInf Best_Integer Best_Bound ItCnt Gap
0 0 171.8712 19 171.8712 16
0+ 0 nan nan 1361.8712 171.8712 nan 87.38%
0+ 0 nan nan 584.9235 171.8712 nan 70.62%
0+ 0 nan nan 554.2802 171.8712 nan 68.99%
0+ 0 nan nan 428.2704 171.8712 nan 59.87%
0 2 171.8712 19 428.2704 193.6140 16 54.79%
CPXPARAM_MIP_Cuts_Gomory-FlowCovers:Gomory 0
CPXPARAM_MIP_Cuts_Gomory-FlowCovers:FlowCovers 0
8
Node Left Objective IInf Best_Integer Best_Bound ItCnt Gap
0 0 420.0936 22 420.0936 16
0+ 0 nan nan 1553.6356 420.0936 nan 72.96%
0 0 439.9488 22 1553.6356 Cuts:13 54 71.68%
0+ 0 nan nan 1169.1917 439.9488 nan 62.37%
0 0 447.1317 22 1169.1917 Fract:7 94 61.76%
0 0 450.6139 23 1169.1917 Fract:5 113 61.46%
0 0 451.4871 23 1169.1917 Fract:2 124 61.38%
0 0 456.5486 22 1169.1917 Fract:3 145 60.95%
0+ 0 nan nan 937.9348 456.5486 nan 51.32%
0 2 456.5486 22 937.9348 457.1276 145 51.26%
CPXPARAM_MIP_Cuts_Gomory-FlowCovers:Gomory 0
CPXPARAM_MIP_Cuts_Gomory-FlowCovers:FlowCovers 10
9
Node Left Objective IInf Best_Integer Best_Bound ItCnt Gap
0 0 580.8795 8 580.8795 15
0+ 0 nan nan 1300.8795 580.8795 nan 55.35%
0+ 0 nan nan 772.7795 580.8795 nan 24.83%
0 2 580.8795 8 772.7795 580.8795 15 24.83%
CPXPARAM_MIP_Cuts_Gomory-FlowCovers:Gomory 0
CPXPARAM_MIP_Cuts_Gomory-FlowCovers:FlowCovers 0
10
Node Left Objective IInf Best_Integer Best_Bound ItCnt Gap
0 0 0.1662 36 0.1662 17
0+ 0 nan nan 492.0262 0.1662 nan 99.97%
0 0 0.1662 36 492.0262 Flowcuts:2 21 99.97%
0+ 0 nan nan 436.9675 0.1662 nan 99.96%
0+ 0 nan nan 406.1514 0.1662 nan 99.96%
0 2 0.1662 36 406.1514 0.1695 21 99.96%
CPXPARAM_MIP_Cuts_Gomory-FlowCovers:Gomory 1
CPXPARAM_MIP_Cuts_Gomory-FlowCovers:FlowCovers 0
11
Node Left Objective IInf Best_Integer Best_Bound ItCnt Gap
0 0 3.1984 26 3.1984 19
0+ 0 nan nan 2083.1984 3.1984 nan 99.85%
0+ 0 nan nan 309.7232 3.1984 nan 98.97%
0+ 0 nan nan 231.1636 3.1984 nan 98.62%
0 2 3.1984 26 231.1636 3.3341 19 98.56%
CPXPARAM_MIP_Cuts_Gomory-FlowCovers:Gomory 0
CPXPARAM_MIP_Cuts_Gomory-FlowCovers:FlowCovers 0
12
Node Left Objective IInf Best_Integer Best_Bound ItCnt Gap
0 0 269.7984 23 269.7984 15
0+ 0 nan nan 1086.0851 269.7984 nan 75.16%
0 0 322.5284 26 1086.0851 Cuts:11 85 70.30%
0 0 343.6282 26 1086.0851 Cuts:15 135 68.36%
0+ 0 nan nan 1066.0807 343.6282 nan 67.77%
0 0 355.3887 27 1066.0807 Fract:3 159 66.66%
0 0 361.3592 26 1066.0807 Cuts:10 185 66.10%
0 0 363.6962 27 1066.0807 Cuts:3 200 65.88%
0 0 363.6962 27 1066.0807 Flowcuts:1 202 65.88%
0+ 0 nan nan 952.1349 363.6962 nan 61.80%
0 2 363.6962 27 952.1349 364.9299 202 61.67%
CPXPARAM_MIP_Cuts_Gomory-FlowCovers:Gomory 1
CPXPARAM_MIP_Cuts_Gomory-FlowCovers:FlowCovers 10
13
Node Left Objective IInf Best_Integer Best_Bound ItCnt Gap
0 0 493.4927 9 493.4927 15
0+ 0 nan nan 1173.4927 493.4927 nan 57.95%
0+ 0 nan nan 664.4267 493.4927 nan 25.73%
0 0 499.4146 16 664.4267 Fract:9 50 24.84%
0+ 0 nan nan 634.7229 499.4146 nan 21.32%
0 2 499.4146 16 634.7229 503.5357 50 20.67%
CPXPARAM_MIP_Cuts_Gomory-FlowCovers:Gomory 0
CPXPARAM_MIP_Cuts_Gomory-FlowCovers:FlowCovers 7
14
Node Left Objective IInf Best_Integer Best_Bound ItCnt Gap
0 0 0.1082 36 0.1082 17
0+ 0 nan nan 652.1653 0.1082 nan 99.98%
0+ 0 nan nan 325.1431 0.1082 nan 99.97%
0 2 0.1082 36 325.1431 0.1630 17 99.95%
CPXPARAM_MIP_Cuts_Gomory-FlowCovers:Gomory 0
CPXPARAM_MIP_Cuts_Gomory-FlowCovers:FlowCovers 0
15
Node Left Objective IInf Best_Integer Best_Bound ItCnt Gap
0 0 66.3618 18 66.3618 16
0+ 0 nan nan 1506.3618 66.3618 nan 95.59%
0+ 0 nan nan 516.3066 66.3618 nan 87.15%
0 0 116.6282 20 516.3066 Fract:8 64 77.41%
0+ 0 nan nan 514.6293 116.6282 nan 77.34%
0 0 138.4935 22 514.6293 Fract:5 97 73.09%
0+ 0 nan nan 427.2190 138.4935 nan 67.58%
0 0 140.1926 21 427.2190 Fract:1 107 67.18%
0+ 0 nan nan 339.7117 140.1926 nan 58.73%
0 2 140.1926 21 339.7117 145.8538 107 57.07%
CPXPARAM_MIP_Cuts_Gomory-FlowCovers:Gomory 0
CPXPARAM_MIP_Cuts_Gomory-FlowCovers:FlowCovers 4
16
Node Left Objective IInf Best_Integer Best_Bound ItCnt Gap
0 0 310.5211 23 310.5211 15
0+ 0 nan nan 1055.6718 310.5211 nan 70.59%
0 0 347.9798 23 1055.6718 Fract:14 83 67.04%
0+ 0 nan nan 758.9363 347.9798 nan 54.15%
0 0 367.4337 24 758.9363 Fract:10 143 51.59%
0 0 370.6580 25 758.9363 Fract:5 177 51.16%
0 0 374.3080 24 758.9363 Fract:4 198 50.68%
0 0 378.8082 25 758.9363 Fract:2 225 50.09%
0 0 380.8175 27 758.9363 Fract:2 237 49.82%
0+ 0 nan nan 722.7387 380.8175 nan 47.31%
0 2 380.8175 27 722.7387 380.8266 237 47.31%
CPXPARAM_MIP_Cuts_Gomory-FlowCovers:Gomory 0
CPXPARAM_MIP_Cuts_Gomory-FlowCovers:FlowCovers 11
17
Node Left Objective IInf Best_Integer Best_Bound ItCnt Gap
0 0 720.7294 4 720.7294 14
0+ 0 nan nan 1000.7294 720.7294 nan 27.98%
0+ 0 nan nan 799.5637 720.7294 nan 9.86%
0 0 720.7294 5 799.5637 Fract:4 28 9.86%
0 0 720.7294 6 799.5637 Fract:4 46 9.86%
0 2 720.7294 5 799.5637 720.7294 46 9.86%
CPXPARAM_MIP_Cuts_Gomory-FlowCovers:Gomory 0
CPXPARAM_MIP_Cuts_Gomory-FlowCovers:FlowCovers 6
18
Node Left Objective IInf Best_Integer Best_Bound ItCnt Gap
0 0 70.9860 28 70.9860 16
0+ 0 nan nan 890.2799 70.9860 nan 92.03%
0 0 86.5090 26 890.2799 Cuts:21 48 90.28%
0+ 0 nan nan 762.5807 86.5090 nan 88.66%
0 0 114.3804 30 762.5807 Cuts:14 101 85.00%
0 0 116.2702 31 762.5807 Cuts:3 111 84.75%
0 0 116.2702 31 762.5807 Flowcuts:1 113 84.75%
0+ 0 nan nan 671.8177 116.2702 nan 82.69%
0 2 116.2702 31 671.8177 122.7976 113 81.72%
CPXPARAM_MIP_Cuts_Gomory-FlowCovers:Gomory 3
CPXPARAM_MIP_Cuts_Gomory-FlowCovers:FlowCovers 5
19
Node Left Objective IInf Best_Integer Best_Bound ItCnt Gap
0 0 97.2884 17 97.2884 16
0+ 0 nan nan 1287.2884 97.2884 nan 92.44%
0+ 0 nan nan 431.7817 97.2884 nan 77.47%
0+ 0 nan nan 426.2967 97.2884 nan 77.18%
0+ 0 nan nan 366.9267 97.2884 nan 73.49%
0 2 97.2884 17 366.9267 107.0290 16 70.83%
CPXPARAM_MIP_Cuts_Gomory-FlowCovers:Gomory 0
CPXPARAM_MIP_Cuts_Gomory-FlowCovers:FlowCovers 0
20
Node Left Objective IInf Best_Integer Best_Bound ItCnt Gap
0 0 531.7240 16 531.7240 15
0 0 552.1094 19 Cuts:19 59
0+ 0 nan nan 1079.6500 552.1094 nan 48.86%
0 0 564.7259 22 1079.6500 Fract:19 117 47.69%
0+ 0 nan nan 921.5469 564.7259 nan 38.72%
0 0 567.3326 25 921.5469 Fract:15 177 38.44%
0+ 0 nan nan 705.5308 567.3326 nan 19.59%
0 0 568.3782 27 705.5308 Fract:16 217 19.44%
0 2 568.3782 27 705.5308 568.7964 217 19.38%
CPXPARAM_MIP_Cuts_Gomory-FlowCovers:Gomory 0
CPXPARAM_MIP_Cuts_Gomory-FlowCovers:FlowCovers 20
21
Node Left Objective IInf Best_Integer Best_Bound ItCnt Gap
0 0 531.7240 7 531.7240 13
0+ 0 nan nan 951.7240 531.7240 nan 44.13%
0+ 0 nan nan 694.3366 531.7240 nan 23.42%
0 0 531.7240 11 694.3366 Fract:7 45 23.42%
0 0 540.5351 17 694.3366 Fract:11 73 22.15%
0 0 544.6432 17 694.3366 Fract:8 99 21.56%
0+ 0 nan nan 676.2739 544.6432 nan 19.46%
0 0 548.7519 17 676.2739 Fract:6 127 18.86%
0 0 551.8456 17 676.2739 Fract:5 165 18.40%
0 0 552.5613 16 676.2739 Fract:4 177 18.29%
0+ 0 nan nan 622.2276 552.5613 nan 11.20%
0 2 552.9744 13 622.2276 553.1032 177 11.11%
CPXPARAM_MIP_Cuts_Gomory-FlowCovers:Gomory 0
CPXPARAM_MIP_Cuts_Gomory-FlowCovers:FlowCovers 16
22
Node Left Objective IInf Best_Integer Best_Bound ItCnt Gap
0 0 227.5448 20 227.5448 13
0+ 0 nan nan 898.9050 227.5448 nan 74.69%
0 0 260.3238 26 898.9050 Fract:19 65 71.04%
0 0 293.6018 28 898.9050 Fract:25 127 67.34%
0 0 295.7700 30 898.9050 Fract:3 141 67.10%
0 0 297.3279 28 898.9050 Fract:2 151 66.92%
0 0 302.4283 31 898.9050 Fract:10 187 66.36%
0+ 0 nan nan 649.2018 302.4283 nan 53.42%
0 0 305.1882 29 649.2018 Fract:3 222 52.99%
0 0 305.4704 29 649.2018 Fract:1 227 52.95%
0 2 305.4704 29 649.2018 305.8950 227 52.88%
CPXPARAM_MIP_Cuts_Gomory-FlowCovers:Gomory 0
CPXPARAM_MIP_Cuts_Gomory-FlowCovers:FlowCovers 16
23
Node Left Objective IInf Best_Integer Best_Bound ItCnt Gap
0 0 242.6314 13 242.6314 13
0+ 0 nan nan 1152.6314 242.6314 nan 78.95%
0+ 0 nan nan 445.1166 242.6314 nan 45.49%
0 0 286.2959 20 445.1166 Fract:13 63 35.68%
0 0 300.2205 20 445.1166 Fract:14 102 32.55%
0 0 302.2155 20 445.1166 Fract:1 117 32.10%
0 0 308.3355 20 445.1166 Fract:2 139 30.73%
0 0 310.1022 21 445.1166 Fract:2 155 30.33%
0 0 314.1215 23 445.1166 Fract:16 181 29.43%
0 0 316.5445 22 445.1166 Fract:5 204 28.89%
0+ 0 nan nan 437.1289 316.5445 nan 27.59%
0 2 316.5445 22 437.1289 317.5997 204 27.34%
CPXPARAM_MIP_Cuts_Gomory-FlowCovers:Gomory 0
CPXPARAM_MIP_Cuts_Gomory-FlowCovers:FlowCovers 13
24
Node Left Objective IInf Best_Integer Best_Bound ItCnt Gap
0 0 563.2442 17 563.2442 15
0 0 577.8140 25 Fract:16 73
0+ 0 nan nan 1080.4219 577.8140 nan 46.52%
0 0 586.0668 25 1080.4219 Fract:20 113 45.76%
0+ 0 nan nan 965.3422 586.0668 nan 39.29%
0 0 594.5763 26 965.3422 Fract:7 145 38.41%
0 0 598.1329 24 965.3422 Fract:3 170 38.04%
0 0 599.0218 24 965.3422 Fract:1 175 37.95%
0 0 603.2176 27 965.3422 Fract:6 196 37.51%
0 0 606.4512 28 965.3422 Fract:3 222 37.18%
0 0 606.9077 28 965.3422 Fract:3 235 37.13%
0 2 606.9077 28 965.3422 607.3071 235 37.09%
CPXPARAM_MIP_Cuts_Gomory-FlowCovers:Gomory 0
CPXPARAM_MIP_Cuts_Gomory-FlowCovers:FlowCovers 18
25
Node Left Objective IInf Best_Integer Best_Bound ItCnt Gap
0 0 563.2442 8 563.2442 15
0+ 0 nan nan 1243.2442 563.2442 nan 54.70%
0+ 0 nan nan 755.8696 563.2442 nan 25.48%
0 0 569.4555 15 755.8696 Fract:8 63 24.66%
0 0 581.4952 16 755.8696 Fract:5 78 23.07%
0+ 0 nan nan 742.5190 581.4952 nan 21.69%
0+ 0 nan nan 729.3947 581.4952 nan 20.28%
0 2 581.4952 16 729.3947 585.0702 78 19.79%
CPXPARAM_MIP_Cuts_Gomory-FlowCovers:Gomory 0
CPXPARAM_MIP_Cuts_Gomory-FlowCovers:FlowCovers 11
26
Node Left Objective IInf Best_Integer Best_Bound ItCnt Gap
0 0 159.9467 27 159.9467 19
0 0 215.6782 26 Fract:9 63
0 0 302.5968 31 Fract:23 180
0 0 302.7082 31 Fract:1 184
0+ 0 nan nan 1023.0092 302.7082 nan 70.41%
0+ 0 nan nan 985.7320 302.7082 nan 69.29%
0 2 302.7082 31 985.7320 303.7222 184 69.19%
CPXPARAM_MIP_Cuts_Gomory-FlowCovers:Gomory 0
CPXPARAM_MIP_Cuts_Gomory-FlowCovers:FlowCovers 14
27
Node Left Objective IInf Best_Integer Best_Bound ItCnt Gap
0 0 335.3220 14 335.3220 16
0+ 0 nan nan 1615.3220 335.3220 nan 79.24%
0+ 0 nan nan 566.8560 335.3220 nan 40.85%
0 2 335.3220 14 566.8560 335.3220 16 40.85%
CPXPARAM_MIP_Cuts_Gomory-FlowCovers:Gomory 0
CPXPARAM_MIP_Cuts_Gomory-FlowCovers:FlowCovers 0
28
Node Left Objective IInf Best_Integer Best_Bound ItCnt Gap
0 0 737.6756 14 737.6756 16
0+ 0 nan nan 1567.2256 737.6756 nan 52.93%
0 0 753.9092 25 1567.2256 Cuts:13 70 51.90%
0+ 0 nan nan 1498.4855 753.9092 nan 49.69%
0 0 776.8155 25 1498.4855 Cuts:23 104 48.16%
0 0 806.4901 27 1498.4855 Fract:17 153 46.18%
0 0 806.8593 27 1498.4855 Cuts:2 157 46.16%
0 0 807.1132 28 1498.4855 Cuts:2 163 46.14%
0+ 0 nan nan 1108.4077 807.1132 nan 27.18%
0+ 0 nan nan 1073.5550 807.1132 nan 24.82%
0 2 807.1132 28 1073.5550 807.2250 163 24.81%
CPXPARAM_MIP_Cuts_Gomory-FlowCovers:Gomory 2
CPXPARAM_MIP_Cuts_Gomory-FlowCovers:FlowCovers 18
29
Node Left Objective IInf Best_Integer Best_Bound ItCnt Gap
0 0 857.6756 7 857.6756 15
0+ 0 nan nan 1537.6756 857.6756 nan 44.22%
0+ 0 nan nan 974.1424 857.6756 nan 11.96%
0 0 857.6756 11 974.1424 Fract:7 51 11.96%
0 0 860.5770 18 974.1424 Fract:10 84 11.66%
0+ 0 nan nan 913.8046 860.5770 nan 5.82%
0 2 862.5716 8 913.8046 864.1466 84 5.43%
CPXPARAM_MIP_Cuts_Gomory-FlowCovers:Gomory 0
CPXPARAM_MIP_Cuts_Gomory-FlowCovers:FlowCovers 15
30
Node Left Objective IInf Best_Integer Best_Bound ItCnt Gap
0 0 395.7677 23 395.7677 14
0+ 0 nan nan 1588.9378 395.7677 nan 75.09%
0 0 424.0750 29 1588.9378 Fract:21 69 73.31%
0+ 0 nan nan 1385.7876 424.0750 nan 69.40%
0 0 427.6057 28 1385.7876 Cuts:3 76 69.14%
0 0 437.6464 28 1385.7876 Cuts:6 101 68.42%
0 0 439.2860 28 1385.7876 Fract:1 111 68.30%
0 0 440.4028 28 1385.7876 Fract:1 119 68.22%
0 0 440.8771 27 1385.7876 Flowcuts:2 126 68.19%
0 0 446.5754 30 1385.7876 Cuts:2 148 67.77%
0+ 0 nan nan 1357.5822 446.5754 nan 67.11%
0+ 0 nan nan 1304.6134 446.5754 nan 65.77%
0 2 446.5754 30 1304.6134 453.4483 148 65.24%
CPXPARAM_MIP_Cuts_Gomory-FlowCovers:Gomory 1
CPXPARAM_MIP_Cuts_Gomory-FlowCovers:FlowCovers 8
31
Node Left Objective IInf Best_Integer Best_Bound ItCnt Gap
0 0 513.7633 11 513.7633 15
0+ 0 nan nan 1633.7633 513.7633 nan 68.55%
0+ 0 nan nan 689.9152 513.7633 nan 25.53%
0 0 522.3635 20 689.9152 Fract:11 62 24.29%
0 2 522.3635 20 689.9152 525.5290 62 23.83%
CPXPARAM_MIP_Cuts_Gomory-FlowCovers:Gomory 0
CPXPARAM_MIP_Cuts_Gomory-FlowCovers:FlowCovers 8
32
Node Left Objective IInf Best_Integer Best_Bound ItCnt Gap
0 0 304.6647 23 304.6647 16
0+ 0 nan nan 989.3206 304.6647 nan 69.20%
0 0 324.3104 23 989.3206 Fract:19 62 67.22%
0+ 0 nan nan 804.3566 324.3104 nan 59.68%
0 0 337.7982 22 804.3566 Fract:15 96 58.00%
0+ 0 nan nan 735.8618 337.7982 nan 54.09%
0+ 0 nan nan 722.1188 337.7982 nan 53.22%
0 2 337.7982 22 722.1188 338.3351 96 53.15%
CPXPARAM_MIP_Cuts_Gomory-FlowCovers:Gomory 0
CPXPARAM_MIP_Cuts_Gomory-FlowCovers:FlowCovers 7
33
Node Left Objective IInf Best_Integer Best_Bound ItCnt Gap
0 0 417.0621 8 417.0621 13
0+ 0 nan nan 1017.0621 417.0621 nan 58.99%
0+ 0 nan nan 579.8864 417.0621 nan 28.08%
0 0 423.9491 14 579.8864 Fract:8 55 26.89%
0 0 437.2481 16 579.8864 Fract:6 87 24.60%
0 0 444.8521 16 579.8864 Fract:4 113 23.29%
0 0 447.4062 15 579.8864 Fract:3 133 22.85%
0 0 448.7320 16 579.8864 Fract:3 152 22.62%
0+ 0 nan nan 575.6063 448.7320 nan 22.04%
0 2 448.7320 16 575.6063 449.2063 152 21.96%
CPXPARAM_MIP_Cuts_Gomory-FlowCovers:Gomory 0
CPXPARAM_MIP_Cuts_Gomory-FlowCovers:FlowCovers 14
34
Node Left Objective IInf Best_Integer Best_Bound ItCnt Gap
0 0 18.4093 27 18.4093 16
0+ 0 nan nan 862.0889 18.4093 nan 97.86%
0 0 53.7641 33 862.0889 Cuts:24 107 93.76%
0+ 0 nan nan 847.4370 53.7641 nan 93.66%
0+ 0 nan nan 719.8092 53.7641 nan 92.53%
0 2 53.7641 33 719.8092 56.0550 107 92.21%
CPXPARAM_MIP_Cuts_Gomory-FlowCovers:Gomory 0
CPXPARAM_MIP_Cuts_Gomory-FlowCovers:FlowCovers 10
35
Node Left Objective IInf Best_Integer Best_Bound ItCnt Gap
0 0 67.5371 18 67.5371 14
0+ 0 nan nan 1187.5371 67.5371 nan 94.31%
0+ 0 nan nan 355.3643 67.5371 nan 80.99%
0 0 95.5128 18 355.3643 Fract:6 38 73.12%
0 0 115.0428 19 355.3643 Fract:4 55 67.63%
0 0 118.0942 18 355.3643 Fract:1 63 66.77%
0 0 121.4678 19 355.3643 Fract:1 78 65.82%
0 0 133.7686 20 355.3643 Fract:5 124 62.36%
0 0 141.4674 20 355.3643 Fract:2 150 60.19%
0+ 0 nan nan 314.0171 141.4674 nan 54.95%
0+ 0 nan nan 302.4210 141.4674 nan 53.22%
0 2 141.4674 20 302.4210 141.7388 150 53.13%
CPXPARAM_MIP_Cuts_Gomory-FlowCovers:Gomory 0
CPXPARAM_MIP_Cuts_Gomory-FlowCovers:FlowCovers 8
36
Node Left Objective IInf Best_Integer Best_Bound ItCnt Gap
0 0 586.6437 17 586.6437 15
0+ 0 nan nan 2021.6073 586.6437 nan 70.98%
0 0 586.6437 17 2021.6073 Flowcuts:1 17 70.98%
0+ 0 nan nan 1922.0017 586.6437 nan 69.48%
0+ 0 nan nan 1383.7877 586.6437 nan 57.61%
0 2 586.6437 17 1383.7877 586.6437 17 57.61%
CPXPARAM_MIP_Cuts_Gomory-FlowCovers:Gomory 1
CPXPARAM_MIP_Cuts_Gomory-FlowCovers:FlowCovers 0
37
Node Left Objective IInf Best_Integer Best_Bound ItCnt Gap
0 0 536.7930 7 536.7930 15
0+ 0 nan nan 1296.7930 536.7930 nan 58.61%
0+ 0 nan nan 705.4649 536.7930 nan 23.91%
0 2 536.7930 7 705.4649 536.7930 15 23.91%
CPXPARAM_MIP_Cuts_Gomory-FlowCovers:Gomory 0
CPXPARAM_MIP_Cuts_Gomory-FlowCovers:FlowCovers 0
38
Node Left Objective IInf Best_Integer Best_Bound ItCnt Gap
0 0 221.9075 20 221.9075 16
0+ 0 nan nan 1195.5496 221.9075 nan 81.44%
0 0 278.0911 23 1195.5496 Fract:19 86 76.74%
0 0 370.6596 25 1195.5496 Fract:22 193 69.00%
0 0 375.3755 28 1195.5496 Fract:3 214 68.60%
0 0 392.5100 28 1195.5496 Fract:6 248 67.17%
0 0 395.3825 28 1195.5496 Fract:4 270 66.93%
0 0 405.9078 28 1195.5496 Fract:5 300 66.05%
0 0 411.6799 29 1195.5496 Fract:7 320 65.57%
0 0 412.7339 29 1195.5496 Fract:1 327 65.48%
0 0 413.0582 29 1195.5496 Fract:1 331 65.45%
0+ 0 nan nan 1112.2636 413.0582 nan 62.86%
0 2 413.0582 29 1112.2636 417.4200 331 62.47%
CPXPARAM_MIP_Cuts_Gomory-FlowCovers:Gomory 0
CPXPARAM_MIP_Cuts_Gomory-FlowCovers:FlowCovers 18
39
Node Left Objective IInf Best_Integer Best_Bound ItCnt Gap
0 0 166.8114 18 166.8114 14
0+ 0 nan nan 1426.8114 166.8114 nan 88.31%
0+ 0 nan nan 635.9856 166.8114 nan 73.77%
0 0 230.3109 19 635.9856 Fract:18 56 63.79%
0 0 257.6834 20 635.9856 Fract:7 83 59.48%
0+ 0 nan nan 557.6978 257.6834 nan 53.80%
0+ 0 nan nan 555.0552 257.6834 nan 53.58%
0 2 257.6834 20 555.0552 269.2048 83 51.50%
CPXPARAM_MIP_Cuts_Gomory-FlowCovers:Gomory 0
CPXPARAM_MIP_Cuts_Gomory-FlowCovers:FlowCovers 8
